c Grafo no formato DIMACS 
p edge 60 173 
e 1 43 
e 1 20 
e 1 17 
e 2 59 
e 2 55 
e 2 39 
e 2 35 
e 2 30 
e 2 29 
e 2 19 
e 2 13 
e 2 9 
e 2 6 
e 3 57 
e 3 44 
e 3 40 
e 3 17 
e 3 15 
e 3 14 
e 3 5 
e 4 59 
e 4 33 
e 4 27 
e 4 24 
e 5 52 
e 5 27 
e 5 26 
e 5 18 
e 5 12 
e 6 54 
e 6 46 
e 6 26 
e 7 53 
e 7 35 
e 7 12 
e 8 51 
e 8 23 
e 8 16 
e 8 14 
e 8 13 
e 8 11 
e 8 10 
e 9 53 
e 9 51 
e 9 44 
e 9 40 
e 9 37 
e 9 34 
e 9 33 
e 9 17 
e 10 44 
e 10 15 
e 11 56 
e 11 55 
e 11 45 
e 11 22 
e 12 55 
e 12 54 
e 13 50 
e 13 49 
e 13 41 
e 13 38 
e 13 35 
e 13 34 
e 13 31 
e 13 29 
e 13 23 
e 14 45 
e 14 22 
e 15 48 
e 15 32 
e 15 21 
e 16 60 
e 16 52 
e 16 24 
e 17 55 
e 17 52 
e 17 49 
e 17 48 
e 17 43 
e 17 38 
e 17 35 
e 18 56 
e 18 52 
e 18 33 
e 18 26 
e 19 31 
e 19 29 
e 19 28 
e 19 23 
e 20 55 
e 20 46 
e 20 21 
e 21 53 
e 21 47 
e 21 41 
e 21 38 
e 21 31 
e 21 29 
e 21 23 
e 22 52 
e 22 39 
e 22 31 
e 22 23 
e 23 47 
e 23 34 
e 23 30 
e 24 25 
e 25 60 
e 25 46 
e 25 38 
e 25 29 
e 26 56 
e 26 39 
e 27 46 
e 28 42 
e 28 40 
e 28 32 
e 29 57 
e 29 47 
e 29 45 
e 29 43 
e 29 38 
e 29 37 
e 29 36 
e 30 46 
e 30 41 
e 30 40 
e 30 39 
e 30 32 
e 30 31 
e 31 54 
e 31 51 
e 31 33 
e 32 41 
e 33 51 
e 34 55 
e 34 54 
e 34 44 
e 34 36 
e 35 37 
e 36 48 
e 36 41 
e 37 49 
e 37 46 
e 37 41 
e 38 57 
e 39 55 
e 40 58 
e 40 56 
e 40 55 
e 40 41 
e 41 59 
e 42 56 
e 42 43 
e 43 57 
e 43 50 
e 45 56 
e 45 53 
e 45 46 
e 46 58 
e 46 56 
e 46 50 
e 46 47 
e 48 51 
e 48 50 
e 49 57 
e 49 50 
e 50 53 
e 50 51 
e 51 57 
e 52 57 
e 55 58 
